\ LP format - for model browsing. Use MPS format to capture full model detail.
Minimize
  zeta_sub_1
Subject To
 R0: zeta_sub_1 + 9.428157e+06 y_1_0 - 6.2141918e+07 y_1_1
   - 1.35274959e+08 y_1_2 - 2.05641876e+08 y_1_3 - 1.55800626e+08 y_1_4
   - 3.00826476e+08 y_1_5 - 2.3347723e+08 y_1_6 + 2.3890065e+07 y_1_7
   - 3.35870113e+08 y_1_8 + 2.2712472e+07 y_1_9 - 1.8098543e+07 y_1_10
   - 1.91936745e+08 y_1_11 - 2.8027112e+07 y_1_12 - 1.39081337e+08 y_1_13
   - 2.2166135e+07 y_1_14 - 1.0615888e+07 y_1_15 - 6.2681385e+07 y_1_16
   - 8.4017916e+07 y_1_17 + 1.0454162e+07 y_1_18 - 1.56600519e+08 y_1_19
   - 7.3813547e+07 y_1_20 - 1.26887139e+08 y_1_21 - 2.18162381e+08 y_1_22
   - 3.0873082e+08 y_1_23 - 3.15182878e+08 y_1_24 - 1.0044223e+07 y_1_25
   - 3.10851569e+08 y_1_26 - 1.54798202e+08 y_1_27 - 2.33626139e+08 y_1_28
   - 3.43111675e+08 y_1_29 + 2.0644892e+07 y_1_30 - 2.44818532e+08 y_1_31
   - 2.9472743e+07 y_1_32 - 7.4470763e+07 y_1_33 - 3.11972243e+08 y_1_34
   - 7.224676e+06 y_1_35 - 3.25439797e+08 y_1_36 - 2.58161863e+08 y_1_37
   - 1.74700378e+08 y_1_38 - 1.46622835e+08 y_1_39 - 1.19730499e+08 y_1_40
   - 1.47847897e+08 y_1_41 - 1.14476601e+08 y_1_42 - 3.5775466e+08 y_1_43
   - 9.9666586e+07 y_1_44 + 9.103782e+06 y_1_45 - 3.7677482e+07 y_1_46
   - 2.35529586e+08 y_1_47 - 3.23910171e+08 y_1_48 - 9.4038364e+07 y_1_49
   - 1.69183486e+08 y_1_50 - 2.18581427e+08 y_1_51 - 3.11686914e+08 y_1_52
   - 2.38397803e+08 y_1_53 - 1.86464111e+08 y_1_54 - 1.19138366e+08 y_1_55
   - 6.4971543e+07 y_1_56 - 3.14964228e+08 y_1_57 - 7.56261e+07 y_1_58
   - 6.652804e+06 y_1_59 - 1.52458218e+08 y_1_60 - 1.87765537e+08 y_1_61
   - 1.40009726e+08 y_1_62 - 2.25464952e+08 y_1_63 - 3.0392849e+07 y_1_64
   - 3.23672668e+08 y_1_65 - 2.52640479e+08 y_1_66 - 1.53406478e+08 y_1_67
   - 2.4724368e+07 y_1_68 - 2.73793843e+08 y_1_69 - 2.39528333e+08 y_1_70
   >= 0
 R1: y_1_29 + y_1_30 + y_1_31 + y_1_32 + y_1_33 + y_1_34 + y_1_35 + y_1_36
   + y_1_37 + y_1_38 = 1
 R2: y_1_53 + y_1_54 + y_1_55 + y_1_56 + y_1_57 + y_1_58 + y_1_59 + y_1_60
   = 0
 R3: - y_1_29 + y_1_39 + y_1_40 + y_1_41 + y_1_42 + y_1_43 + y_1_44
   + y_1_45 + y_1_46 + y_1_47 = 0
 R4: y_1_6 + y_1_7 + y_1_8 + y_1_9 + y_1_10 + y_1_11 + y_1_12 + y_1_13
   + y_1_14 - y_1_36 = 0
 R5: - y_1_6 + y_1_15 + y_1_16 + y_1_17 + y_1_18 + y_1_19 + y_1_20 - y_1_34
   - y_1_42 - y_1_59 = 0
 R6: - y_1_12 - y_1_30 - y_1_40 + y_1_48 + y_1_49 + y_1_50 + y_1_51
   + y_1_52 - y_1_56 = 0
 R7: y_1_0 + y_1_1 + y_1_2 + y_1_3 + y_1_4 - y_1_10 - y_1_38 - y_1_46
   - y_1_53 = 0
 R8: - y_1_33 - y_1_43 + y_1_63 + y_1_64 + y_1_65 = 0
 R9: - y_1_1 - y_1_17 - y_1_52 - y_1_57 + y_1_66 + y_1_67 + y_1_68 + y_1_69
   = 0
 R10: - y_1_4 - y_1_9 - y_1_15 + y_1_21 + y_1_22 + y_1_23 - y_1_37 - y_1_45
   - y_1_50 = 0
 R11: - y_1_3 - y_1_7 - y_1_21 + y_1_26 + y_1_27 - y_1_35 - y_1_48 - y_1_63
   - y_1_68 = 0
 R12: - y_1_13 - y_1_32 - y_1_39 - y_1_51 + y_1_61 + y_1_62 - y_1_65
   - y_1_66 = 0
 R13: - y_1_11 + y_1_24 + y_1_25 - y_1_54 = 0
 R14: - y_1_20 - y_1_22 - y_1_44 - y_1_60 - y_1_61 - y_1_64 - y_1_69
   + y_1_70 = 0
 R15: - y_1_2 - y_1_14 - y_1_18 - y_1_25 + y_1_28 - y_1_31 - y_1_41
   - y_1_58 - y_1_67 = 0
 R16: - y_1_0 + y_1_5 - y_1_16 - y_1_26 - y_1_47 - y_1_55 - y_1_62 = 0
 R17: - y_1_5 - y_1_8 - y_1_19 - y_1_23 - y_1_24 - y_1_27 - y_1_28 - y_1_49
   - y_1_70 = -1
Bounds
 y_1_0 <= 1
 y_1_1 <= 1
 y_1_2 <= 1
 y_1_3 <= 1
 y_1_4 <= 1
 y_1_5 <= 1
 y_1_6 <= 1
 y_1_7 <= 1
 y_1_8 <= 1
 y_1_9 <= 1
 y_1_10 <= 1
 y_1_11 <= 1
 y_1_12 <= 1
 y_1_13 <= 1
 y_1_14 <= 1
 y_1_15 <= 1
 y_1_16 <= 1
 y_1_17 <= 1
 y_1_18 <= 1
 y_1_19 <= 1
 y_1_20 <= 1
 y_1_21 <= 1
 y_1_22 <= 1
 y_1_23 <= 1
 y_1_24 <= 1
 y_1_25 <= 1
 y_1_26 <= 1
 y_1_27 <= 1
 y_1_28 <= 1
 y_1_29 <= 1
 y_1_30 <= 1
 y_1_31 <= 1
 y_1_32 <= 1
 y_1_33 <= 1
 y_1_34 <= 1
 y_1_35 <= 1
 y_1_36 <= 1
 y_1_37 <= 1
 y_1_38 <= 1
 y_1_39 <= 1
 y_1_40 <= 1
 y_1_41 <= 1
 y_1_42 <= 1
 y_1_43 <= 1
 y_1_44 <= 1
 y_1_45 <= 1
 y_1_46 <= 1
 y_1_47 <= 1
 y_1_48 <= 1
 y_1_49 <= 1
 y_1_50 <= 1
 y_1_51 <= 1
 y_1_52 <= 1
 y_1_53 <= 1
 y_1_54 <= 1
 y_1_55 <= 1
 y_1_56 <= 1
 y_1_57 <= 1
 y_1_58 <= 1
 y_1_59 <= 1
 y_1_60 <= 1
 y_1_61 <= 1
 y_1_62 <= 1
 y_1_63 <= 1
 y_1_64 <= 1
 y_1_65 <= 1
 y_1_66 <= 1
 y_1_67 <= 1
 y_1_68 <= 1
 y_1_69 <= 1
 y_1_70 <= 1
End
